\ LP format - for model browsing. Use MPS format to capture full model detail.
Minimize
  60000 y[0,0] + 30000 y[0,1] + 60000 y[1,0] + 30000 y[1,1] + 60000 y[2,0]
   + 30000 y[2,1] + 60000 y[3,0] + 30000 y[3,1] + 0 z[0,0] + 0 z[1,0]
   + 0 z[1,1] + 0 z[2,0] + 0 z[2,1] + 0 z[2,2] + 0 z[3,0] + 0 z[3,1]
   + 0 z[3,2] + 0 z[3,3]
Subject To
 C1: 0.25 y[0,0] + 0.25 y[0,1] + 0.25 y[1,0] + 0.25 y[1,1] + 0.25 y[2,0]
   + 0.25 y[2,1] + 0.25 y[3,0] + 0.25 y[3,1] >= 0.8
 C2[0]: y[0,0] + y[0,1] = 1
 C2[1]: y[1,0] + y[1,1] = 1
 C2[2]: y[2,0] + y[2,1] = 1
 C2[3]: y[3,0] + y[3,1] = 1
 C5[0,1]: - 300 z[0,1] >= -255
 C5[0,2]: - 300 z[0,2] >= -330
 C5[0,3]: - 300 z[0,3] >= -345
 C5[1,2]: - 300 z[1,2] >= -315
 C5[1,3]: - 300 z[1,3] >= -330
 C5[2,3]: - 300 z[2,3] >= -255
 C6[0,0]: - 300 y[0,0] >= -300
 C6[0,1]: - 300 y[0,1] >= -300
 C6[1,0]: - 300 y[1,0] >= -300
 C6[1,1]: - 300 y[1,1] >= -300
 C6[2,0]: - 300 y[2,0] >= -300
 C6[2,1]: - 300 y[2,1] >= -300
 C6[3,0]: - 300 y[3,0] >= -300
 C6[3,1]: - 300 y[3,1] >= -300
 C7a[A1]: 0.0135 y[0,0] + 0.00675 y[0,1] - 0.0165 y[1,0] - 0.00825 y[1,1]
   + 0.0135 y[2,0] + 0.00675 y[2,1] - 0.0165 y[3,0] - 0.00825 y[3,1] <= 0
 C7a[A2]: - 0.0165 y[0,0] - 0.00825 y[0,1] + 0.0135 y[1,0] + 0.00675 y[1,1]
   - 0.0165 y[2,0] - 0.00825 y[2,1] + 0.0135 y[3,0] + 0.00675 y[3,1] <= 0
 C7b[A1]: - 0.0165 y[0,0] - 0.00825 y[0,1] + 0.0135 y[1,0] + 0.00675 y[1,1]
   - 0.0165 y[2,0] - 0.00825 y[2,1] + 0.0135 y[3,0] + 0.00675 y[3,1] <= 0
 C7b[A2]: 0.0135 y[0,0] + 0.00675 y[0,1] - 0.0165 y[1,0] - 0.00825 y[1,1]
   + 0.0135 y[2,0] + 0.00675 y[2,1] - 0.0165 y[3,0] - 0.00825 y[3,1] <= 0
 C4[0,1]: z[0,1] + [ - y[0,0] * y[1,0] - y[0,1] * y[1,1] ] = 0
 C4[0,2]: z[0,2] + [ - y[0,0] * y[2,0] - y[0,1] * y[2,1] ] = 0
 C4[0,3]: z[0,3] + [ - y[0,0] * y[3,0] - y[0,1] * y[3,1] ] = 0
 C4[1,2]: z[1,2] + [ - y[1,0] * y[2,0] - y[1,1] * y[2,1] ] = 0
 C4[1,3]: z[1,3] + [ - y[1,0] * y[3,0] - y[1,1] * y[3,1] ] = 0
 C4[2,3]: z[2,3] + [ - y[2,0] * y[3,0] - y[2,1] * y[3,1] ] = 0
Bounds
Binaries
 y[0,0] y[0,1] y[1,0] y[1,1] y[2,0] y[2,1] y[3,0] y[3,1] z[0,0] z[0,1]
 z[0,2] z[0,3] z[1,0] z[1,1] z[1,2] z[1,3] z[2,0] z[2,1] z[2,2] z[2,3]
 z[3,0] z[3,1] z[3,2] z[3,3]
End
